1 2 5 10
3 4 9
5 6 7
8 9 2 1
10 4
1 2 5 10
3 4 9
5 6 7
8 9 2 1
10 4
1 2 5 10
3 4 9
5 6 7
8 9 2 1
10 4
1 2 5 10
3 4 9
5 6 7
8 9 2 1
10 4
1 2 5 10
3 4 9
5 6 7
8 9 2 1
10 4
1 2 5 10
3 4 9
5 6 7
8 9 2 1
10 4
1 2 5 10
3 4 9
5 6 7
8 9 2 1
10 4
1 2 5 10
3 4 9
5 6 7
8 9 2 1
10 4
1 2 5 10
3 4 9
5 6 7
8 9 2 1
10 4
1 2 5 10
3 4 9
5 6 7
8 9 2 1
10 4
